c description: Random 3-CNF over 25 variables and 75 clauses
c generator: CNFgen (0.9.0)
c copyright: (C) 2012-2020 Massimo Lauria <massimo.lauria@uniroma1.it>
c url: https://massimolauria.net/cnfgen
c command line: cnfgen randkcnf 3 25 75
c
p cnf 25 75
-1 9 12 0
-1 3 7 0
10 -17 22 0
-8 -9 -10 0
1 -16 24 0
-3 13 23 0
1 4 -17 0
3 11 -16 0
4 14 23 0
-1 -10 23 0
5 -8 21 0
1 -3 -17 0
3 -16 22 0
-6 -15 -22 0
2 3 7 0
-18 20 -21 0
-4 -17 -20 0
1 18 25 0
3 -5 -12 0
-10 13 -24 0
-16 19 24 0
9 -10 -13 0
-1 -2 17 0
2 7 -23 0
2 3 -9 0
-6 -13 23 0
2 -16 23 0
13 -16 -17 0
8 -10 -12 0
-4 6 -18 0
-2 -7 9 0
-18 -22 -25 0
-9 10 19 0
-19 -20 -21 0
11 -14 20 0
12 23 -25 0
9 10 -24 0
-8 16 -22 0
-9 -10 16 0
-12 18 23 0
1 -13 -15 0
5 7 19 0
-10 18 -21 0
-14 15 21 0
-10 -11 20 0
2 -12 -23 0
-3 9 12 0
7 -17 20 0
-1 -6 -23 0
10 -12 -16 0
7 -14 15 0
8 -9 -21 0
14 16 -25 0
-13 -14 16 0
14 -18 23 0
-5 -12 14 0
-1 -8 19 0
-13 22 23 0
-1 11 -20 0
-1 -10 -15 0
-1 10 -13 0
-4 -6 -23 0
-6 -10 19 0
17 -18 -23 0
4 23 25 0
-3 -13 24 0
-14 -16 20 0
12 -19 20 0
-13 -14 24 0
2 -4 -12 0
-8 15 -22 0
-11 -13 -14 0
-5 9 17 0
-7 -15 18 0
7 9 -11 0
